Instance name : DPDPTWHF_R_DPDPTWUR-R_optics_SB_ber-n100-1
Authors : 
Date : 
Reference 
Solution
Route 1 : 43 32 27 82 77 93 24 74 
Route 2 : 14 31 64 81 38 20 70 88 
Route 3 : 48 47 41 98 97 91 40 90 
Route 4 : 23 73 25 75 37 39 89 87 
Route 5 : 6 10 56 17 67 60 
Route 6 : 33 28 7 57 83 78 35 85 
Route 7 : 22 29 79 72 4 54 
Route 8 : 15 65 3 11 61 53 
Route 9 : 42 92 12 62 5 55 
Route 10 : 21 71 1 34 84 51 2 52 
Route 11 : 50 46 96 100 30 45 95 80 
Route 12 : 
Route 13 : 
Route 14 : 
Route 15 : 
